400
[41,42,43,44,45,47,48,49,50,51,52,55,56,57,58,59,60,61,62,64,65,68,69,70,71,72,74,75,76,78,79,80,81,82,83,84,85,86,87,88,89,90,91,93,94,95,96,98,99,100,101,102,103,105,107,109,110,111,112,113,114,116,117,118,119,120,121,122,123,124,125,126,127,128,129,130,131,132,133,134,135,136,138,139,140,141,142,143,144,145,146,147,148,149,150,151,152,154,155,159,160,161,162,163,164,165,166,167,168,169,170,171,172,173,174,175,176,177,178,179,180,181,182,183,184,185,186,187,188,189,190,191,193,194,195,196,197,198,199,200,201,202,203,204,205,206,207,208,212,213,214,215,216,217,218,219,220,221,222,223,224,225,226,227,228,229,231,232,234,235,236,237,238,239,240,241,244,245,246,248,249,250,253,254,256,257,258,259,260,261,262,263,264,265,266,267,268,269,270,271,272,273,275,276,277,278,279,280]
[2,3,3,2,1,4,1,4,4,2,5,2,3,1,2,1,3,4,5,3,2,2,1,1,3,3,3,2,1,1,2,2,1,4,4,2,3,2,5,2,4,4,3,2,1,3,1,1,3,1,1,1,3,2,1,2,4,3,5,2,2,5,1,1,1,4,4,1,1,2,1,3,1,1,2,1,3,3,2,2,1,2,2,4,2,1,2,3,3,2,1,4,5,1,1,2,1,2,3,3,3,3,2,1,3,5,2,2,4,1,4,1,1,2,1,1,3,1,5,2,3,5,1,2,4,1,1,1,3,2,1,4,1,1,2,4,2,3,2,4,3,1,1,2,3,2,1,1,1,4,1,6,2,4,2,2,3,1,3,2,2,1,1,3,1,3,3,2,1,3,5,3,2,3,1,4,2,4,4,3,1,3,6,1,2,1,2,1,2,4,5,5,1,2,3,4,1,1,4,3,2,3,3,1,5,4,3,3]
